80 3160
1 2 137
1 3 105
1 4 41
1 5 64
1 6 148
1 7 70
1 8 227
1 9 123
1 10 176
1 11 132
1 12 187
1 13 75
1 14 159
1 15 141
1 16 30
1 17 205
1 18 12
1 19 172
1 20 216
1 21 158
1 22 145
1 23 148
1 24 89
1 25 224
1 26 142
1 27 36
1 28 212
1 29 84
1 30 187
1 31 13
1 32 121
1 33 198
1 34 69
1 35 236
1 36 215
1 37 200
1 38 8
1 39 72
1 40 141
1 41 87
1 42 234
1 43 201
1 44 151
1 45 45
1 46 54
1 47 94
1 48 205
1 49 62
1 50 73
1 51 100
1 52 205
1 53 31
1 54 120
1 55 70
1 56 56
1 57 3
1 58 33
1 59 104
1 60 168
1 61 40
1 62 141
1 63 120
1 64 76
1 65 41
1 66 232
1 67 223
1 68 0
1 69 25
1 70 35
1 71 147
1 72 199
1 73 115
1 74 97
1 75 16
1 76 194
1 77 1
1 78 194
1 79 225
1 80 239
2 3 145
2 4 10
2 5 69
2 6 1
2 7 212
2 8 180
2 9 209
2 10 106
2 11 239
2 12 68
2 13 102
2 14 202
2 15 98
2 16 10
2 17 39
2 18 11
2 19 151
2 20 146
2 21 156
2 22 68
2 23 110
2 24 67
2 25 64
2 26 42
2 27 227
2 28 209
2 29 40
2 30 105
2 31 128
2 32 47
2 33 208
2 34 71
2 35 102
2 36 0
2 37 39
2 38 16
2 39 143
2 40 15
2 41 16
2 42 92
2 43 102
2 44 179
2 45 97
2 46 143
2 47 102
2 48 193
2 49 36
2 50 112
2 51 66
2 52 4
2 53 77
2 54 100
2 55 101
2 56 160
2 57 185
2 58 161
2 59 209
2 60 187
2 61 7
2 62 232
2 63 84
2 64 174
2 65 11
2 66 210
2 67 33
2 68 106
2 69 237
2 70 155
2 71 203
2 72 239
2 73 52
2 74 79
2 75 0
2 76 69
2 77 43
2 78 176
2 79 75
2 80 177
3 4 186
3 5 193
3 6 128
3 7 115
3 8 164
3 9 114
3 10 111
3 11 67
3 12 53
3 13 79
3 14 11
3 15 155
3 16 83
3 17 238
3 18 84
3 19 16
3 20 142
3 21 59
3 22 153
3 23 146
3 24 87
3 25 173
3 26 77
3 27 109
3 28 101
3 29 84
3 30 201
3 31 37
3 32 74
3 33 194
3 34 132
3 35 179
3 36 57
3 37 28
3 38 105
3 39 218
3 40 204
3 41 161
3 42 24
3 43 114
3 44 82
3 45 221
3 46 101
3 47 216
3 48 203
3 49 220
3 50 63
3 51 195
3 52 203
3 53 75
3 54 94
3 55 12
3 56 219
3 57 162
3 58 90
3 59 81
3 60 38
3 61 116
3 62 187
3 63 32
3 64 229
3 65 36
3 66 137
3 67 26
3 68 80
3 69 203
3 70 1
3 71 4
3 72 220
3 73 132
3 74 33
3 75 137
3 76 67
3 77 86
3 78 213
3 79 48
3 80 146
4 5 85
4 6 192
4 7 216
4 8 111
4 9 238
4 10 93
4 11 208
4 12 58
4 13 82
4 14 62
4 15 38
4 16 196
4 17 47
4 18 223
4 19 213
4 20 176
4 21 100
4 22 231
4 23 155
4 24 166
4 25 31
4 26 84
4 27 155
4 28 98
4 29 218
4 30 114
4 31 170
4 32 91
4 33 44
4 34 34
4 35 102
4 36 84
4 37 19
4 38 28
4 39 31
4 40 91
4 41 152
4 42 66
4 43 216
4 44 105
4 45 221
4 46 126
4 47 50
4 48 66
4 49 160
4 50 227
4 51 102
4 52 160
4 53 182
4 54 90
4 55 195
4 56 206
4 57 132
4 58 113
4 59 186
4 60 40
4 61 33
4 62 144
4 63 96
4 64 116
4 65 131
4 66 212
4 67 32
4 68 28
4 69 144
4 70 218
4 71 30
4 72 120
4 73 150
4 74 146
4 75 87
4 76 227
4 77 162
4 78 22
4 79 77
4 80 22
5 6 154
5 7 169
5 8 158
5 9 186
5 10 174
5 11 77
5 12 197
5 13 187
5 14 15
5 15 113
5 16 122
5 17 173
5 18 229
5 19 125
5 20 58
5 21 80
5 22 57
5 23 209
5 24 1
5 25 169
5 26 201
5 27 38
5 28 174
5 29 27
5 30 239
5 31 180
5 32 114
5 33 69
5 34 24
5 35 11
5 36 37
5 37 166
5 38 224
5 39 84
5 40 46
5 41 127
5 42 91
5 43 8
5 44 54
5 45 9
5 46 101
5 47 163
5 48 147
5 49 207
5 50 191
5 51 128
5 52 105
5 53 177
5 54 102
5 55 111
5 56 190
5 57 64
5 58 187
5 59 13
5 60 222
5 61 131
5 62 55
5 63 62
5 64 139
5 65 197
5 66 198
5 67 176
5 68 97
5 69 64
5 70 183
5 71 201
5 72 219
5 73 162
5 74 167
5 75 218
5 76 30
5 77 27
5 78 239
5 79 135
5 80 84
6 7 67
6 8 133
6 9 66
6 10 56
6 11 226
6 12 108
6 13 29
6 14 42
6 15 43
6 16 114
6 17 49
6 18 228
6 19 74
6 20 145
6 21 119
6 22 68
6 23 159
6 24 45
6 25 127
6 26 154
6 27 180
6 28 123
6 29 125
6 30 84
6 31 145
6 32 11
6 33 10
6 34 23
6 35 71
6 36 56
6 37 16
6 38 165
6 39 16
6 40 53
6 41 27
6 42 125
6 43 28
6 44 7
6 45 187
6 46 65
6 47 78
6 48 229
6 49 93
6 50 159
6 51 220
6 52 177
6 53 137
6 54 110
6 55 13
6 56 125
6 57 181
6 58 171
6 59 11
6 60 1
6 61 136
6 62 146
6 63 198
6 64 199
6 65 223
6 66 146
6 67 171
6 68 153
6 69 163
6 70 38
6 71 204
6 72 57
6 73 201
6 74 21
6 75 39
6 76 181
6 77 162
6 78 105
6 79 191
6 80 122
7 8 62
7 9 102
7 10 125
7 11 87
7 12 4
7 13 239
7 14 92
7 15 212
7 16 173
7 17 202
7 18 43
7 19 119
7 20 119
7 21 232
7 22 79
7 23 32
7 24 70
7 25 14
7 26 227
7 27 135
7 28 173
7 29 45
7 30 174
7 31 48
7 32 51
7 33 78
7 34 195
7 35 222
7 36 77
7 37 52
7 38 118
7 39 87
7 40 103
7 41 69
7 42 129
7 43 200
7 44 81
7 45 176
7 46 235
7 47 200
7 48 81
7 49 97
7 50 34
7 51 15
7 52 206
7 53 189
7 54 199
7 55 12
7 56 74
7 57 150
7 58 190
7 59 202
7 60 188
7 61 228
7 62 70
7 63 199
7 64 134
7 65 165
7 66 86
7 67 184
7 68 194
7 69 128
7 70 80
7 71 152
7 72 135
7 73 134
7 74 111
7 75 3
7 76 188
7 77 107
7 78 115
7 79 188
7 80 223
8 9 134
8 10 154
8 11 116
8 12 192
8 13 211
8 14 78
8 15 152
8 16 146
8 17 126
8 18 199
8 19 87
8 20 97
8 21 236
8 22 177
8 23 130
8 24 32
8 25 146
8 26 81
8 27 55
8 28 9
8 29 124
8 30 9
8 31 193
8 32 215
8 33 197
8 34 217
8 35 195
8 36 165
8 37 151
8 38 237
8 39 100
8 40 193
8 41 44
8 42 138
8 43 107
8 44 226
8 45 60
8 46 205
8 47 16
8 48 175
8 49 225
8 50 55
8 51 10
8 52 100
8 53 155
8 54 111
8 55 43
8 56 133
8 57 65
8 58 145
8 59 53
8 60 149
8 61 45
8 62 178
8 63 46
8 64 215
8 65 122
8 66 206
8 67 69
8 68 11
8 69 24
8 70 163
8 71 112
8 72 86
8 73 194
8 74 214
8 75 90
8 76 189
8 77 153
8 78 137
8 79 10
8 80 84
9 10 73
9 11 71
9 12 48
9 13 64
9 14 111
9 15 35
9 16 96
9 17 38
9 18 32
9 19 2
9 20 72
9 21 127
9 22 53
9 23 128
9 24 114
9 25 215
9 26 130
9 27 163
9 28 175
9 29 120
9 30 60
9 31 96
9 32 232
9 33 111
9 34 172
9 35 211
9 36 222
9 37 162
9 38 196
9 39 239
9 40 12
9 41 239
9 42 151
9 43 28
9 44 107
9 45 3
9 46 96
9 47 120
9 48 84
9 49 122
9 50 173
9 51 234
9 52 219
9 53 97
9 54 161
9 55 96
9 56 105
9 57 22
9 58 162
9 59 217
9 60 84
9 61 90
9 62 55
9 63 37
9 64 36
9 65 10
9 66 186
9 67 177
9 68 100
9 69 94
9 70 117
9 71 185
9 72 126
9 73 237
9 74 154
9 75 19
9 76 221
9 77 43
9 78 140
9 79 170
9 80 92
10 11 47
10 12 59
10 13 54
10 14 159
10 15 141
10 16 49
10 17 112
10 18 121
10 19 182
10 20 60
10 21 223
10 22 115
10 23 47
10 24 19
10 25 32
10 26 105
10 27 105
10 28 187
10 29 49
10 30 100
10 31 224
10 32 45
10 33 20
10 34 86
10 35 108
10 36 87
10 37 194
10 38 175
10 39 209
10 40 70
10 41 170
10 42 0
10 43 35
10 44 34
10 45 75
10 46 60
10 47 55
10 48 111
10 49 225
10 50 93
10 51 208
10 52 216
10 53 199
10 54 184
10 55 85
10 56 63
10 57 199
10 58 80
10 59 128
10 60 137
10 61 207
10 62 7
10 63 141
10 64 120
10 65 211
10 66 164
10 67 217
10 68 196
10 69 190
10 70 209
10 71 238
10 72 158
10 73 139
10 74 17
10 75 58
10 76 59
10 77 181
10 78 103
10 79 43
10 80 239
11 12 18
11 13 78
11 14 155
11 15 95
11 16 120
11 17 77
11 18 75
11 19 74
11 20 116
11 21 154
11 22 112
11 23 231
11 24 61
11 25 228
11 26 105
11 27 141
11 28 199
11 29 222
11 30 193
11 31 139
11 32 178
11 33 152
11 34 164
11 35 1
11 36 201
11 37 83
11 38 80
11 39 192
11 40 78
11 41 102
11 42 209
11 43 213
11 44 194
11 45 103
11 46 25
11 47 23
11 48 41
11 49 218
11 50 178
11 51 231
11 52 153
11 53 15
11 54 25
11 55 107
11 56 224
11 57 203
11 58 117
11 59 45
11 60 31
11 61 195
11 62 135
11 63 99
11 64 160
11 65 113
11 66 237
11 67 178
11 68 142
11 69 67
11 70 174
11 71 120
11 72 216
11 73 57
11 74 46
11 75 136
11 76 151
11 77 45
11 78 30
11 79 169
11 80 101
12 13 161
12 14 144
12 15 195
12 16 46
12 17 26
12 18 74
12 19 54
12 20 37
12 21 158
12 22 35
12 23 30
12 24 53
12 25 25
12 26 156
12 27 120
12 28 82
12 29 106
12 30 221
12 31 93
12 32 160
12 33 164
12 34 150
12 35 8
12 36 89
12 37 90
12 38 36
12 39 48
12 40 124
12 41 214
12 42 167
12 43 209
12 44 51
12 45 198
12 46 217
12 47 100
12 48 92
12 49 10
12 50 18
12 51 86
12 52 92
12 53 50
12 54 113
12 55 22
12 56 88
12 57 24
12 58 131
12 59 12
12 60 100
12 61 196
12 62 11
12 63 28
12 64 59
12 65 146
12 66 115
12 67 172
12 68 72
12 69 154
12 70 203
12 71 208
12 72 56
12 73 222
12 74 141
12 75 102
12 76 171
12 77 51
12 78 191
12 79 97
12 80 39
13 14 98
13 15 233
13 16 145
13 17 163
13 18 84
13 19 19
13 20 140
13 21 134
13 22 151
13 23 25
13 24 5
13 25 157
13 26 198
13 27 176
13 28 183
13 29 147
13 30 126
13 31 220
13 32 179
13 33 153
13 34 236
13 35 59
13 36 207
13 37 176
13 38 59
13 39 218
13 40 225
13 41 48
13 42 100
13 43 194
13 44 233
13 45 139
13 46 125
13 47 82
13 48 231
13 49 129
13 50 227
13 51 226
13 52 18
13 53 55
13 54 177
13 55 40
13 56 229
13 57 82
13 58 163
13 59 208
13 60 98
13 61 32
13 62 218
13 63 101
13 64 237
13 65 123
13 66 156
13 67 30
13 68 161
13 69 187
13 70 58
13 71 130
13 72 18
13 73 182
13 74 48
13 75 77
13 76 146
13 77 191
13 78 98
13 79 36
13 80 45
14 15 162
14 16 27
14 17 41
14 18 159
14 19 43
14 20 55
14 21 115
14 22 61
14 23 157
14 24 110
14 25 126
14 26 84
14 27 71
14 28 9
14 29 26
14 30 226
14 31 106
14 32 68
14 33 37
14 34 182
14 35 15
14 36 98
14 37 29
14 38 32
14 39 75
14 40 219
14 41 209
14 42 87
14 43 26
14 44 67
14 45 77
14 46 39
14 47 139
14 48 21
14 49 218
14 50 67
14 51 161
14 52 49
14 53 64
14 54 167
14 55 138
14 56 179
14 57 236
14 58 165
14 59 99
14 60 92
14 61 125
14 62 216
14 63 231
14 64 185
14 65 9
14 66 179
14 67 7
14 68 91
14 69 131
14 70 180
14 71 209
14 72 8
14 73 174
14 74 50
14 75 76
14 76 99
14 77 127
14 78 204
14 79 136
14 80 98
15 16 239
15 17 168
15 18 5
15 19 34
15 20 186
15 21 212
15 22 129
15 23 30
15 24 136
15 25 22
15 26 68
15 27 221
15 28 16
15 29 92
15 30 216
15 31 19
15 32 18
15 33 152
15 34 239
15 35 54
15 36 21
15 37 210
15 38 79
15 39 119
15 40 165
15 41 93
15 42 236
15 43 18
15 44 105
15 45 56
15 46 194
15 47 157
15 48 237
15 49 178
15 50 68
15 51 105
15 52 230
15 53 18
15 54 83
15 55 101
15 56 103
15 57 190
15 58 85
15 59 169
15 60 179
15 61 101
15 62 33
15 63 44
15 64 87
15 65 168
15 66 10
15 67 30
15 68 164
15 69 218
15 70 224
15 71 186
15 72 230
15 73 8
15 74 61
15 75 28
15 76 159
15 77 70
15 78 143
15 79 44
15 80 209
16 17 188
16 18 231
16 19 206
16 20 23
16 21 73
16 22 69
16 23 150
16 24 36
16 25 213
16 26 175
16 27 41
16 28 24
16 29 78
16 30 188
16 31 177
16 32 167
16 33 150
16 34 226
16 35 29
16 36 42
16 37 174
16 38 53
16 39 55
16 40 25
16 41 169
16 42 190
16 43 62
16 44 227
16 45 176
16 46 35
16 47 229
16 48 79
16 49 142
16 50 202
16 51 21
16 52 28
16 53 231
16 54 60
16 55 209
16 56 156
16 57 140
16 58 75
16 59 84
16 60 224
16 61 48
16 62 111
16 63 211
16 64 101
16 65 193
16 66 126
16 67 142
16 68 183
16 69 116
16 70 95
16 71 98
16 72 30
16 73 163
16 74 238
16 75 178
16 76 111
16 77 189
16 78 213
16 79 88
16 80 239
17 18 120
17 19 196
17 20 64
17 21 108
17 22 212
17 23 81
17 24 66
17 25 107
17 26 30
17 27 108
17 28 88
17 29 125
17 30 33
17 31 141
17 32 202
17 33 79
17 34 144
17 35 107
17 36 35
17 37 97
17 38 190
17 39 204
17 40 173
17 41 223
17 42 87
17 43 148
17 44 27
17 45 143
17 46 90
17 47 226
17 48 177
17 49 109
17 50 142
17 51 45
17 52 175
17 53 47
17 54 51
17 55 52
17 56 135
17 57 159
17 58 110
17 59 220
17 60 166
17 61 209
17 62 1
17 63 181
17 64 126
17 65 96
17 66 45
17 67 66
17 68 192
17 69 102
17 70 157
17 71 52
17 72 137
17 73 77
17 74 232
17 75 228
17 76 63
17 77 47
17 78 85
17 79 230
17 80 112
18 19 132
18 20 209
18 21 224
18 22 114
18 23 159
18 24 147
18 25 204
18 26 234
18 27 3
18 28 221
18 29 33
18 30 68
18 31 236
18 32 229
18 33 4
18 34 211
18 35 238
18 36 123
18 37 65
18 38 215
18 39 184
18 40 13
18 41 205
18 42 57
18 43 74
18 44 220
18 45 212
18 46 104
18 47 181
18 48 79
18 49 185
18 50 86
18 51 215
18 52 10
18 53 207
18 54 85
18 55 212
18 56 9
18 57 218
18 58 115
18 59 16
18 60 165
18 61 4
18 62 59
18 63 108
18 64 192
18 65 62
18 66 154
18 67 5
18 68 169
18 69 122
18 70 178
18 71 141
18 72 143
18 73 121
18 74 144
18 75 21
18 76 76
18 77 80
18 78 80
18 79 174
18 80 96
19 20 227
19 21 87
19 22 120
19 23 192
19 24 120
19 25 231
19 26 150
19 27 60
19 28 228
19 29 168
19 30 4
19 31 124
19 32 46
19 33 226
19 34 160
19 35 229
19 36 76
19 37 100
19 38 184
19 39 164
19 40 0
19 41 52
19 42 221
19 43 94
19 44 36
19 45 27
19 46 87
19 47 49
19 48 209
19 49 78
19 50 13
19 51 3
19 52 125
19 53 205
19 54 38
19 55 31
19 56 14
19 57 53
19 58 189
19 59 92
19 60 6
19 61 4
19 62 105
19 63 93
19 64 134
19 65 165
19 66 64
19 67 164
19 68 131
19 69 50
19 70 235
19 71 121
19 72 106
19 73 208
19 74 195
19 75 146
19 76 183
19 77 169
19 78 94
19 79 238
19 80 33
20 21 38
20 22 16
20 23 144
20 24 50
20 25 53
20 26 162
20 27 11
20 28 177
20 29 160
20 30 200
20 31 164
20 32 12
20 33 173
20 34 55
20 35 219
20 36 198
20 37 82
20 38 82
20 39 222
20 40 208
20 41 192
20 42 50
20 43 221
20 44 58
20 45 179
20 46 210
20 47 169
20 48 31
20 49 84
20 50 136
20 51 224
20 52 196
20 53 147
20 54 14
20 55 238
20 56 190
20 57 152
20 58 79
20 59 99
20 60 48
20 61 100
20 62 187
20 63 167
20 64 237
20 65 61
20 66 12
20 67 121
20 68 14
20 69 239
20 70 35
20 71 95
20 72 232
20 73 125
20 74 46
20 75 52
20 76 4
20 77 48
20 78 94
20 79 143
20 80 13
21 22 78
21 23 183
21 24 222
21 25 217
21 26 52
21 27 218
21 28 47
21 29 82
21 30 2
21 31 84
21 32 146
21 33 233
21 34 30
21 35 115
21 36 21
21 37 38
21 38 236
21 39 104
21 40 144
21 41 111
21 42 32
21 43 134
21 44 24
21 45 234
21 46 182
21 47 127
21 48 89
21 49 224
21 50 107
21 51 207
21 52 209
21 53 131
21 54 231
21 55 212
21 56 151
21 57 124
21 58 62
21 59 218
21 60 206
21 61 171
21 62 121
21 63 228
21 64 43
21 65 36
21 66 82
21 67 43
21 68 234
21 69 6
21 70 35
21 71 74
21 72 224
21 73 233
21 74 45
21 75 160
21 76 78
21 77 178
21 78 85
21 79 107
21 80 50
22 23 224
22 24 132
22 25 77
22 26 34
22 27 4
22 28 232
22 29 78
22 30 99
22 31 121
22 32 128
22 33 45
22 34 109
22 35 169
22 36 146
22 37 211
22 38 97
22 39 0
22 40 39
22 41 135
22 42 189
22 43 212
22 44 74
22 45 134
22 46 201
22 47 74
22 48 13
22 49 139
22 50 120
22 51 130
22 52 233
22 53 96
22 54 124
22 55 203
22 56 72
22 57 193
22 58 121
22 59 33
22 60 65
22 61 186
22 62 76
22 63 226
22 64 73
22 65 220
22 66 176
22 67 167
22 68 230
22 69 155
22 70 209
22 71 40
22 72 51
22 73 148
22 74 103
22 75 12
22 76 36
22 77 233
22 78 62
22 79 198
22 80 209
23 24 113
23 25 82
23 26 107
23 27 92
23 28 89
23 29 31
23 30 132
23 31 16
23 32 135
23 33 6
23 34 147
23 35 110
23 36 11
23 37 58
23 38 43
23 39 212
23 40 231
23 41 39
23 42 123
23 43 61
23 44 113
23 45 96
23 46 148
23 47 113
23 48 220
23 49 4
23 50 214
23 51 148
23 52 20
23 53 58
23 54 89
23 55 188
23 56 27
23 57 80
23 58 47
23 59 33
23 60 137
23 61 116
23 62 14
23 63 76
23 64 185
23 65 33
23 66 4
23 67 108
23 68 47
23 69 214
23 70 83
23 71 194
23 72 223
23 73 42
23 74 160
23 75 226
23 76 189
23 77 45
23 78 65
23 79 75
23 80 211
24 25 7
24 26 164
24 27 78
24 28 16
24 29 158
24 30 68
24 31 45
24 32 167
24 33 60
24 34 71
24 35 97
24 36 56
24 37 214
24 38 54
24 39 183
24 40 147
24 41 62
24 42 222
24 43 18
24 44 223
24 45 94
24 46 151
24 47 179
24 48 123
24 49 24
24 50 84
24 51 24
24 52 31
24 53 164
24 54 107
24 55 193
24 56 141
24 57 227
24 58 85
24 59 37
24 60 196
24 61 116
24 62 140
24 63 84
24 64 219
24 65 115
24 66 179
24 67 164
24 68 76
24 69 69
24 70 235
24 71 185
24 72 0
24 73 64
24 74 91
24 75 107
24 76 71
24 77 219
24 78 233
24 79 106
24 80 23
25 26 129
25 27 222
25 28 232
25 29 124
25 30 108
25 31 150
25 32 57
25 33 77
25 34 105
25 35 25
25 36 158
25 37 24
25 38 185
25 39 120
25 40 227
25 41 36
25 42 198
25 43 0
25 44 32
25 45 88
25 46 29
25 47 177
25 48 108
25 49 200
25 50 2
25 51 33
25 52 75
25 53 89
25 54 26
25 55 5
25 56 85
25 57 223
25 58 171
25 59 198
25 60 93
25 61 168
25 62 215
25 63 230
25 64 192
25 65 129
25 66 100
25 67 41
25 68 230
25 69 110
25 70 112
25 71 79
25 72 3
25 73 25
25 74 16
25 75 68
25 76 69
25 77 36
25 78 50
25 79 229
25 80 125
26 27 119
26 28 121
26 29 102
26 30 69
26 31 230
26 32 149
26 33 156
26 34 137
26 35 239
26 36 103
26 37 77
26 38 167
26 39 51
26 40 80
26 41 231
26 42 205
26 43 126
26 44 225
26 45 231
26 46 100
26 47 109
26 48 114
26 49 93
26 50 111
26 51 130
26 52 232
26 53 32
26 54 13
26 55 39
26 56 139
26 57 119
26 58 197
26 59 24
26 60 165
26 61 223
26 62 188
26 63 168
26 64 102
26 65 20
26 66 77
26 67 158
26 68 47
26 69 163
26 70 15
26 71 49
26 72 102
26 73 170
26 74 65
26 75 42
26 76 196
26 77 78
26 78 33
26 79 82
26 80 83
27 28 115
27 29 213
27 30 152
27 31 166
27 32 109
27 33 231
27 34 73
27 35 43
27 36 102
27 37 165
27 38 2
27 39 54
27 40 158
27 41 224
27 42 116
27 43 69
27 44 228
27 45 140
27 46 104
27 47 174
27 48 87
27 49 202
27 50 230
27 51 232
27 52 204
27 53 186
27 54 184
27 55 139
27 56 231
27 57 207
27 58 192
27 59 140
27 60 135
27 61 212
27 62 24
27 63 13
27 64 115
27 65 74
27 66 160
27 67 85
27 68 70
27 69 34
27 70 187
27 71 66
27 72 202
27 73 112
27 74 124
27 75 18
27 76 154
27 77 215
27 78 185
27 79 198
27 80 188
28 29 23
28 30 125
28 31 211
28 32 81
28 33 152
28 34 184
28 35 77
28 36 125
28 37 228
28 38 17
28 39 232
28 40 188
28 41 116
28 42 8
28 43 159
28 44 32
28 45 57
28 46 148
28 47 72
28 48 4
28 49 116
28 50 30
28 51 204
28 52 217
28 53 8
28 54 162
28 55 41
28 56 95
28 57 211
28 58 194
28 59 10
28 60 134
28 61 165
28 62 83
28 63 219
28 64 143
28 65 195
28 66 222
28 67 95
28 68 25
28 69 66
28 70 60
28 71 157
28 72 230
28 73 235
28 74 112
28 75 122
28 76 53
28 77 49
28 78 110
28 79 15
28 80 220
29 30 56
29 31 186
29 32 130
29 33 40
29 34 203
29 35 170
29 36 70
29 37 87
29 38 184
29 39 115
29 40 20
29 41 27
29 42 142
29 43 194
29 44 49
29 45 163
29 46 220
29 47 123
29 48 100
29 49 194
29 50 54
29 51 40
29 52 121
29 53 171
29 54 8
29 55 155
29 56 15
29 57 59
29 58 12
29 59 6
29 60 4
29 61 207
29 62 178
29 63 16
29 64 229
29 65 33
29 66 7
29 67 73
29 68 133
29 69 107
29 70 208
29 71 202
29 72 195
29 73 16
29 74 83
29 75 60
29 76 18
29 77 160
29 78 193
29 79 213
29 80 156
30 31 165
30 32 104
30 33 183
30 34 55
30 35 115
30 36 19
30 37 81
30 38 216
30 39 88
30 40 111
30 41 201
30 42 57
30 43 85
30 44 120
30 45 151
30 46 3
30 47 148
30 48 219
30 49 3
30 50 63
30 51 2
30 52 215
30 53 142
30 54 104
30 55 20
30 56 9
30 57 140
30 58 236
30 59 71
30 60 188
30 61 99
30 62 193
30 63 162
30 64 8
30 65 47
30 66 56
30 67 102
30 68 174
30 69 53
30 70 165
30 71 158
30 72 3
30 73 158
30 74 71
30 75 168
30 76 27
30 77 65
30 78 145
30 79 163
30 80 112
31 32 151
31 33 106
31 34 78
31 35 35
31 36 144
31 37 206
31 38 194
31 39 237
31 40 3
31 41 166
31 42 200
31 43 208
31 44 58
31 45 120
31 46 77
31 47 7
31 48 74
31 49 117
31 50 217
31 51 117
31 52 185
31 53 177
31 54 185
31 55 99
31 56 70
31 57 76
31 58 77
31 59 206
31 60 117
31 61 54
31 62 95
31 63 173
31 64 25
31 65 155
31 66 49
31 67 37
31 68 17
31 69 62
31 70 219
31 71 10
31 72 172
31 73 17
31 74 131
31 75 173
31 76 37
31 77 38
31 78 169
31 79 222
31 80 97
32 33 61
32 34 0
32 35 39
32 36 89
32 37 36
32 38 1
32 39 171
32 40 79
32 41 190
32 42 41
32 43 33
32 44 117
32 45 184
32 46 35
32 47 78
32 48 17
32 49 25
32 50 182
32 51 49
32 52 230
32 53 159
32 54 205
32 55 19
32 56 26
32 57 103
32 58 216
32 59 170
32 60 34
32 61 133
32 62 87
32 63 206
32 64 156
32 65 238
32 66 84
32 67 178
32 68 99
32 69 212
32 70 206
32 71 206
32 72 120
32 73 117
32 74 216
32 75 201
32 76 118
32 77 181
32 78 89
32 79 81
32 80 9
33 34 170
33 35 42
33 36 165
33 37 87
33 38 93
33 39 202
33 40 82
33 41 104
33 42 85
33 43 90
33 44 7
33 45 230
33 46 35
33 47 144
33 48 159
33 49 216
33 50 115
33 51 59
33 52 108
33 53 98
33 54 49
33 55 195
33 56 116
33 57 89
33 58 11
33 59 5
33 60 147
33 61 22
33 62 94
33 63 231
33 64 99
33 65 161
33 66 143
33 67 68
33 68 59
33 69 103
33 70 166
33 71 152
33 72 77
33 73 85
33 74 69
33 75 50
33 76 208
33 77 173
33 78 220
33 79 129
33 80 232
34 35 20
34 36 160
34 37 173
34 38 217
34 39 183
34 40 227
34 41 207
34 42 164
34 43 191
34 44 216
34 45 121
34 46 177
34 47 61
34 48 200
34 49 160
34 50 157
34 51 170
34 52 169
34 53 61
34 54 104
34 55 230
34 56 53
34 57 147
34 58 215
34 59 138
34 60 90
34 61 227
34 62 113
34 63 85
34 64 196
34 65 171
34 66 73
34 67 132
34 68 160
34 69 73
34 70 102
34 71 83
34 72 137
34 73 99
34 74 104
34 75 199
34 76 0
34 77 150
34 78 107
34 79 191
34 80 98
35 36 92
35 37 205
35 38 100
35 39 171
35 40 193
35 41 203
35 42 109
35 43 52
35 44 33
35 45 223
35 46 66
35 47 166
35 48 0
35 49 182
35 50 135
35 51 192
35 52 50
35 53 42
35 54 86
35 55 215
35 56 70
35 57 205
35 58 235
35 59 56
35 60 43
35 61 218
35 62 160
35 63 110
35 64 132
35 65 70
35 66 51
35 67 87
35 68 186
35 69 1
35 70 34
35 71 206
35 72 181
35 73 209
35 74 63
35 75 138
35 76 181
35 77 96
35 78 140
35 79 42
35 80 78
36 37 17
36 38 112
36 39 31
36 40 43
36 41 194
36 42 211
36 43 104
36 44 177
36 45 183
36 46 110
36 47 8
36 48 140
36 49 109
36 50 131
36 51 2
36 52 123
36 53 16
36 54 16
36 55 184
36 56 208
36 57 155
36 58 119
36 59 41
36 60 107
36 61 15
36 62 214
36 63 49
36 64 134
36 65 74
36 66 224
36 67 52
36 68 237
36 69 196
36 70 186
36 71 196
36 72 129
36 73 91
36 74 140
36 75 213
36 76 24
36 77 110
36 78 71
36 79 192
36 80 193
37 38 183
37 39 95
37 40 26
37 41 215
37 42 191
37 43 200
37 44 133
37 45 237
37 46 30
37 47 164
37 48 33
37 49 110
37 50 180
37 51 158
37 52 140
37 53 33
37 54 81
37 55 56
37 56 202
37 57 7
37 58 220
37 59 21
37 60 55
37 61 102
37 62 113
37 63 116
37 64 125
37 65 99
37 66 132
37 67 39
37 68 190
37 69 194
37 70 224
37 71 200
37 72 194
37 73 153
37 74 67
37 75 149
37 76 17
37 77 186
37 78 108
37 79 236
37 80 87
38 39 15
38 40 52
38 41 70
38 42 173
38 43 121
38 44 50
38 45 55
38 46 211
38 47 138
38 48 17
38 49 28
38 50 8
38 51 236
38 52 58
38 53 11
38 54 26
38 55 159
38 56 227
38 57 6
38 58 159
38 59 76
38 60 11
38 61 119
38 62 117
38 63 211
38 64 25
38 65 176
38 66 73
38 67 179
38 68 4
38 69 43
38 70 70
38 71 95
38 72 233
38 73 227
38 74 68
38 75 230
38 76 205
38 77 32
38 78 45
38 79 139
38 80 201
39 40 41
39 41 76
39 42 40
39 43 142
39 44 108
39 45 179
39 46 168
39 47 0
39 48 190
39 49 135
39 50 209
39 51 55
39 52 199
39 53 212
39 54 166
39 55 100
39 56 111
39 57 235
39 58 179
39 59 101
39 60 137
39 61 178
39 62 118
39 63 81
39 64 105
39 65 229
39 66 126
39 67 18
39 68 182
39 69 236
39 70 144
39 71 137
39 72 169
39 73 7
39 74 163
39 75 3
39 76 79
39 77 61
39 78 144
39 79 153
39 80 143
40 41 176
40 42 68
40 43 142
40 44 12
40 45 152
40 46 105
40 47 54
40 48 200
40 49 111
40 50 49
40 51 161
40 52 55
40 53 140
40 54 56
40 55 0
40 56 78
40 57 103
40 58 205
40 59 99
40 60 20
40 61 119
40 62 49
40 63 12
40 64 209
40 65 100
40 66 58
40 67 72
40 68 127
40 69 170
40 70 216
40 71 16
40 72 120
40 73 105
40 74 203
40 75 118
40 76 152
40 77 53
40 78 0
40 79 157
40 80 96
41 42 155
41 43 160
41 44 16
41 45 3
41 46 233
41 47 131
41 48 80
41 49 53
41 50 101
41 51 212
41 52 135
41 53 47
41 54 80
41 55 5
41 56 179
41 57 18
41 58 48
41 59 227
41 60 154
41 61 112
41 62 206
41 63 63
41 64 107
41 65 133
41 66 69
41 67 183
41 68 226
41 69 58
41 70 97
41 71 63
41 72 211
41 73 149
41 74 41
41 75 150
41 76 24
41 77 25
41 78 193
41 79 239
41 80 207
42 43 38
42 44 158
42 45 206
42 46 215
42 47 174
42 48 213
42 49 197
42 50 4
42 51 143
42 52 89
42 53 17
42 54 65
42 55 77
42 56 87
42 57 1
42 58 37
42 59 207
42 60 40
42 61 206
42 62 71
42 63 124
42 64 201
42 65 128
42 66 232
42 67 233
42 68 57
42 69 31
42 70 229
42 71 187
42 72 13
42 73 71
42 74 227
42 75 60
42 76 64
42 77 170
42 78 45
42 79 30
42 80 25
43 44 216
43 45 232
43 46 49
43 47 219
43 48 135
43 49 200
43 50 71
43 51 75
43 52 119
43 53 96
43 54 156
43 55 168
43 56 30
43 57 235
43 58 97
43 59 147
43 60 40
43 61 200
43 62 123
43 63 238
43 64 43
43 65 26
43 66 45
43 67 53
43 68 155
43 69 142
43 70 198
43 71 210
43 72 220
43 73 234
43 74 218
43 75 198
43 76 140
43 77 3
43 78 125
43 79 61
43 80 102
44 45 190
44 46 159
44 47 227
44 48 216
44 49 145
44 50 211
44 51 110
44 52 50
44 53 136
44 54 59
44 55 170
44 56 165
44 57 164
44 58 150
44 59 71
44 60 51
44 61 142
44 62 38
44 63 72
44 64 238
44 65 140
44 66 228
44 67 13
44 68 218
44 69 189
44 70 123
44 71 86
44 72 168
44 73 26
44 74 200
44 75 40
44 76 84
44 77 23
44 78 3
44 79 52
44 80 175
45 46 206
45 47 186
45 48 110
45 49 226
45 50 74
45 51 22
45 52 70
45 53 187
45 54 225
45 55 152
45 56 163
45 57 184
45 58 220
45 59 167
45 60 144
45 61 146
45 62 172
45 63 200
45 64 41
45 65 168
45 66 214
45 67 60
45 68 178
45 69 233
45 70 132
45 71 164
45 72 84
45 73 140
45 74 8
45 75 14
45 76 86
45 77 46
45 78 177
45 79 54
45 80 230
46 47 103
46 48 106
46 49 72
46 50 82
46 51 7
46 52 111
46 53 1
46 54 63
46 55 95
46 56 23
46 57 136
46 58 35
46 59 119
46 60 165
46 61 174
46 62 48
46 63 65
46 64 220
46 65 79
46 66 57
46 67 66
46 68 45
46 69 155
46 70 200
46 71 37
46 72 11
46 73 69
46 74 54
46 75 62
46 76 79
46 77 171
46 78 88
46 79 162
46 80 86
47 48 133
47 49 177
47 50 173
47 51 59
47 52 33
47 53 143
47 54 193
47 55 105
47 56 153
47 57 137
47 58 56
47 59 59
47 60 207
47 61 132
47 62 175
47 63 50
47 64 95
47 65 43
47 66 161
47 67 6
47 68 209
47 69 9
47 70 208
47 71 140
47 72 118
47 73 32
47 74 213
47 75 69
47 76 140
47 77 10
47 78 231
47 79 51
47 80 181
48 49 181
48 50 143
48 51 115
48 52 27
48 53 35
48 54 66
48 55 66
48 56 208
48 57 125
48 58 75
48 59 18
48 60 96
48 61 228
48 62 53
48 63 74
48 64 178
48 65 106
48 66 237
48 67 1
48 68 38
48 69 107
48 70 158
48 71 56
48 72 51
48 73 207
48 74 59
48 75 24
48 76 201
48 77 92
48 78 46
48 79 223
48 80 9
49 50 47
49 51 183
49 52 238
49 53 151
49 54 235
49 55 56
49 56 184
49 57 226
49 58 43
49 59 161
49 60 144
49 61 179
49 62 226
49 63 134
49 64 100
49 65 0
49 66 13
49 67 187
49 68 228
49 69 33
49 70 39
49 71 78
49 72 100
49 73 193
49 74 194
49 75 38
49 76 126
49 77 196
49 78 223
49 79 221
49 80 41
50 51 186
50 52 40
50 53 221
50 54 118
50 55 144
50 56 82
50 57 231
50 58 56
50 59 153
50 60 43
50 61 115
50 62 88
50 63 69
50 64 100
50 65 56
50 66 83
50 67 86
50 68 136
50 69 174
50 70 208
50 71 139
50 72 72
50 73 74
50 74 112
50 75 163
50 76 180
50 77 77
50 78 226
50 79 231
50 80 89
51 52 155
51 53 223
51 54 158
51 55 72
51 56 181
51 57 21
51 58 126
51 59 21
51 60 162
51 61 169
51 62 54
51 63 156
51 64 112
51 65 75
51 66 67
51 67 236
51 68 102
51 69 206
51 70 168
51 71 209
51 72 33
51 73 163
51 74 175
51 75 66
51 76 106
51 77 129
51 78 227
51 79 220
51 80 137
52 53 140
52 54 70
52 55 233
52 56 88
52 57 22
52 58 237
52 59 141
52 60 113
52 61 177
52 62 208
52 63 205
52 64 42
52 65 116
52 66 194
52 67 173
52 68 191
52 69 103
52 70 213
52 71 113
52 72 158
52 73 18
52 74 214
52 75 45
52 76 1
52 77 190
52 78 181
52 79 19
52 80 177
53 54 77
53 55 113
53 56 110
53 57 183
53 58 169
53 59 149
53 60 158
53 61 190
53 62 216
53 63 52
53 64 146
53 65 194
53 66 136
53 67 222
53 68 159
53 69 60
53 70 171
53 71 194
53 72 163
53 73 33
53 74 0
53 75 20
53 76 58
53 77 70
53 78 103
53 79 62
53 80 237
54 55 81
54 56 179
54 57 140
54 58 179
54 59 202
54 60 190
54 61 77
54 62 238
54 63 232
54 64 183
54 65 120
54 66 65
54 67 162
54 68 31
54 69 63
54 70 103
54 71 214
54 72 171
54 73 35
54 74 147
54 75 51
54 76 219
54 77 213
54 78 164
54 79 8
54 80 191
55 56 217
55 57 75
55 58 116
55 59 69
55 60 4
55 61 140
55 62 89
55 63 35
55 64 130
55 65 72
55 66 130
55 67 51
55 68 73
55 69 124
55 70 83
55 71 237
55 72 181
55 73 13
55 74 158
55 75 68
55 76 150
55 77 80
55 78 228
55 79 118
55 80 233
56 57 160
56 58 130
56 59 102
56 60 2
56 61 225
56 62 78
56 63 114
56 64 144
56 65 173
56 66 165
56 67 210
56 68 170
56 69 141
56 70 165
56 71 133
56 72 137
56 73 181
56 74 167
56 75 76
56 76 91
56 77 48
56 78 86
56 79 189
56 80 238
57 58 228
57 59 192
57 60 218
57 61 54
57 62 229
57 63 153
57 64 32
57 65 123
57 66 49
57 67 64
57 68 38
57 69 217
57 70 185
57 71 79
57 72 75
57 73 192
57 74 72
57 75 175
57 76 210
57 77 36
57 78 208
57 79 157
57 80 22
58 59 94
58 60 60
58 61 228
58 62 48
58 63 38
58 64 66
58 65 175
58 66 139
58 67 143
58 68 6
58 69 51
58 70 90
58 71 210
58 72 23
58 73 122
58 74 122
58 75 231
58 76 44
58 77 10
58 78 122
58 79 193
58 80 122
59 60 39
59 61 22
59 62 124
59 63 2
59 64 7
59 65 164
59 66 72
59 67 55
59 68 149
59 69 217
59 70 168
59 71 220
59 72 34
59 73 198
59 74 122
59 75 8
59 76 105
59 77 60
59 78 211
59 79 177
59 80 112
60 61 62
60 62 205
60 63 171
60 64 26
60 65 141
60 66 159
60 67 54
60 68 14
60 69 10
60 70 204
60 71 214
60 72 33
60 73 184
60 74 162
60 75 180
60 76 216
60 77 23
60 78 50
60 79 161
60 80 51
61 62 38
61 63 171
61 64 200
61 65 1
61 66 233
61 67 6
61 68 38
61 69 192
61 70 112
61 71 123
61 72 159
61 73 16
61 74 206
61 75 120
61 76 60
61 77 95
61 78 168
61 79 60
61 80 21
62 63 212
62 64 198
62 65 45
62 66 159
62 67 103
62 68 48
62 69 163
62 70 62
62 71 95
62 72 67
62 73 221
62 74 235
62 75 7
62 76 216
62 77 10
62 78 44
62 79 223
62 80 116
63 64 67
63 65 64
63 66 6
63 67 193
63 68 163
63 69 228
63 70 16
63 71 225
63 72 111
63 73 216
63 74 206
63 75 4
63 76 224
63 77 161
63 78 157
63 79 124
63 80 216
64 65 158
64 66 93
64 67 73
64 68 95
64 69 218
64 70 123
64 71 128
64 72 195
64 73 197
64 74 58
64 75 171
64 76 116
64 77 118
64 78 89
64 79 29
64 80 196
65 66 71
65 67 201
65 68 70
65 69 147
65 70 86
65 71 139
65 72 124
65 73 61
65 74 119
65 75 109
65 76 194
65 77 81
65 78 52
65 79 145
65 80 3
66 67 208
66 68 144
66 69 183
66 70 6
66 71 166
66 72 109
66 73 97
66 74 12
66 75 193
66 76 112
66 77 212
66 78 160
66 79 59
66 80 29
67 68 166
67 69 156
67 70 142
67 71 180
67 72 190
67 73 203
67 74 193
67 75 233
67 76 119
67 77 21
67 78 147
67 79 150
67 80 171
68 69 160
68 70 82
68 71 43
68 72 150
68 73 135
68 74 227
68 75 213
68 76 161
68 77 174
68 78 196
68 79 22
68 80 17
69 70 131
69 71 95
69 72 100
69 73 209
69 74 102
69 75 203
69 76 46
69 77 33
69 78 132
69 79 139
69 80 71
70 71 196
70 72 199
70 73 179
70 74 205
70 75 172
70 76 128
70 77 125
70 78 109
70 79 182
70 80 44
71 72 74
71 73 155
71 74 152
71 75 141
71 76 23
71 77 120
71 78 17
71 79 109
71 80 29
72 73 138
72 74 83
72 75 213
72 76 10
72 77 203
72 78 6
72 79 207
72 80 43
73 74 107
73 75 221
73 76 115
73 77 180
73 78 193
73 79 45
73 80 60
74 75 228
74 76 232
74 77 108
74 78 10
74 79 113
74 80 231
75 76 230
75 77 231
75 78 232
75 79 222
75 80 31
76 77 161
76 78 229
76 79 106
76 80 175
77 78 61
77 79 207
77 80 190
78 79 213
78 80 167
79 80 140
